p cnf 33 78
-7 1 0
-7 2 0
7 -1 -2 0
-8 3 0
-8 4 0
8 -3 -4 0
-9 7 0
-9 8 0
9 -7 -8 0
-10 2 0
-10 5 0
10 -2 -5 0
-11 1 0
-11 4 0
11 -1 -4 0
-12 10 0
-12 11 0
12 -10 -11 0
-13 -10 0
-13 -11 0
13 10 11 0
-14 -12 0
-14 -13 0
14 12 13 0
-15 9 0
-15 14 0
15 -9 -14 0
-16 -9 0
-16 -14 0
16 9 14 0
-17 -15 0
-17 -16 0
17 15 16 0
-18 3 0
-18 6 0
18 -3 -6 0
-19 17 0
-19 18 0
19 -17 -18 0
-20 -17 0
-20 -18 0
20 17 18 0
-21 -19 0
-21 -20 0
21 19 20 0
-22 11 0
-22 18 0
22 -11 -18 0
-23 -11 0
-23 -18 0
23 11 18 0
-24 -22 0
-24 -23 0
24 22 23 0
-25 9 0
-25 24 0
25 -9 -24 0
-26 -9 0
-26 -24 0
26 9 24 0
-27 -25 0
-27 -26 0
27 25 26 0
-28 10 0
-28 27 0
28 -10 -27 0
-29 -10 0
-29 -27 0
29 10 27 0
-30 -28 0
-30 -29 0
30 28 29 0
-31 21 0
-31 -30 0
-32 -21 0
-32 30 0
33 31 32 0
-33 0
